100
2428
50
0 1
0 4
0 5
0 6
0 8
0 9
0 10
0 11
0 12
0 15
0 16
0 21
0 23
0 25
0 29
0 30
0 31
0 34
0 35
0 40
0 44
0 45
0 47
0 48
0 50
0 51
0 52
0 53
0 54
0 55
0 56
0 59
0 63
0 65
0 66
0 67
0 70
0 71
0 72
0 73
0 74
0 75
0 76
0 87
0 88
0 93
0 94
0 99
1 3
1 5
1 6
1 10
1 12
1 14
1 19
1 21
1 24
1 26
1 27
1 28
1 30
1 31
1 32
1 34
1 36
1 38
1 39
1 40
1 41
1 42
1 46
1 47
1 48
1 49
1 50
1 53
1 58
1 60
1 61
1 63
1 64
1 66
1 67
1 68
1 69
1 72
1 73
1 76
1 77
1 79
1 80
1 82
1 84
1 86
1 89
1 91
1 92
1 93
1 94
1 95
1 97
1 98
2 3
2 4
2 5
2 6
2 7
2 8
2 9
2 10
2 11
2 18
2 19
2 20
2 22
2 23
2 24
2 26
2 27
2 28
2 31
2 32
2 37
2 38
2 44
2 46
2 47
2 50
2 51
2 54
2 56
2 57
2 58
2 62
2 63
2 65
2 66
2 68
2 70
2 71
2 72
2 74
2 75
2 77
2 79
2 81
2 83
2 85
2 87
2 88
2 89
2 90
2 93
2 95
2 96
2 97
2 99
3 5
3 8
3 9
3 10
3 13
3 14
3 16
3 18
3 20
3 33
3 35
3 36
3 39
3 40
3 42
3 43
3 45
3 49
3 50
3 52
3 53
3 54
3 56
3 59
3 60
3 61
3 63
3 64
3 67
3 68
3 69
3 74
3 75
3 77
3 78
3 82
3 83
3 85
3 86
3 92
3 97
3 99
4 5
4 6
4 8
4 9
4 11
4 19
4 20
4 26
4 27
4 28
4 29
4 31
4 32
4 36
4 39
4 40
4 43
4 47
4 48
4 49
4 51
4 52
4 53
4 54
4 55
4 56
4 57
4 58
4 61
4 63
4 65
4 71
4 72
4 75
4 77
4 79
4 81
4 82
4 83
4 84
4 85
4 86
4 88
4 89
4 91
4 92
4 93
4 94
4 95
4 96
4 98
5 6
5 12
5 13
5 16
5 18
5 20
5 22
5 27
5 29
5 30
5 32
5 34
5 36
5 38
5 39
5 41
5 43
5 47
5 49
5 50
5 51
5 52
5 60
5 62
5 65
5 68
5 69
5 70
5 72
5 75
5 79
5 80
5 81
5 82
5 83
5 84
5 86
5 87
5 89
5 92
5 93
5 95
5 96
5 99
6 8
6 10
6 11
6 12
6 17
6 24
6 25
6 26
6 28
6 29
6 33
6 34
6 35
6 37
6 39
6 46
6 48
6 49
6 51
6 52
6 56
6 58
6 59
6 60
6 62
6 63
6 64
6 65
6 67
6 68
6 71
6 72
6 73
6 75
6 78
6 81
6 82
6 86
6 89
6 90
6 91
6 94
6 95
7 10
7 12
7 16
7 17
7 20
7 22
7 25
7 26
7 27
7 28
7 29
7 30
7 31
7 32
7 33
7 35
7 41
7 42
7 44
7 45
7 48
7 50
7 51
7 53
7 54
7 55
7 56
7 57
7 59
7 61
7 63
7 65
7 66
7 72
7 73
7 76
7 78
7 84
7 85
7 86
7 87
7 89
7 90
7 91
7 93
7 94
7 96
7 97
8 9
8 10
8 11
8 14
8 18
8 19
8 20
8 21
8 22
8 26
8 28
8 30
8 31
8 32
8 33
8 34
8 35
8 36
8 37
8 38
8 40
8 41
8 42
8 45
8 46
8 48
8 49
8 54
8 56
8 57
8 59
8 60
8 61
8 64
8 69
8 70
8 74
8 75
8 76
8 77
8 78
8 82
8 84
8 91
8 98
9 11
9 12
9 14
9 15
9 23
9 25
9 26
9 27
9 28
9 33
9 38
9 41
9 42
9 44
9 45
9 46
9 50
9 53
9 54
9 55
9 56
9 58
9 59
9 65
9 66
9 69
9 70
9 75
9 76
9 77
9 78
9 79
9 81
9 82
9 84
9 86
9 87
9 88
9 89
9 90
9 91
9 92
9 94
9 98
10 11
10 12
10 14
10 15
10 20
10 22
10 23
10 24
10 26
10 27
10 30
10 32
10 33
10 37
10 40
10 41
10 42
10 45
10 47
10 49
10 51
10 52
10 53
10 55
10 56
10 62
10 64
10 68
10 73
10 74
10 75
10 76
10 77
10 81
10 83
10 86
10 88
10 89
10 93
10 96
10 98
11 12
11 15
11 20
11 22
11 23
11 27
11 28
11 35
11 36
11 40
11 43
11 44
11 45
11 46
11 48
11 50
11 51
11 52
11 53
11 54
11 59
11 61
11 62
11 64
11 69
11 77
11 79
11 82
11 85
11 89
11 90
11 92
11 93
11 95
11 96
12 19
12 20
12 21
12 23
12 25
12 28
12 30
12 31
12 33
12 35
12 36
12 37
12 38
12 42
12 43
12 44
12 47
12 49
12 51
12 52
12 53
12 55
12 57
12 58
12 59
12 61
12 63
12 64
12 70
12 71
12 72
12 74
12 77
12 78
12 84
12 85
12 86
12 89
12 91
12 92
12 93
12 95
12 96
12 97
12 98
12 99
13 15
13 19
13 24
13 25
13 26
13 29
13 32
13 37
13 40
13 41
13 45
13 48
13 49
13 51
13 52
13 53
13 54
13 58
13 59
13 61
13 64
13 66
13 67
13 68
13 70
13 71
13 72
13 75
13 76
13 78
13 79
13 80
13 82
13 84
13 85
13 91
13 92
13 93
13 94
13 95
13 96
13 98
14 16
14 17
14 19
14 23
14 27
14 29
14 30
14 36
14 42
14 43
14 48
14 49
14 50
14 53
14 54
14 55
14 56
14 57
14 58
14 59
14 60
14 61
14 67
14 69
14 70
14 71
14 72
14 73
14 76
14 77
14 80
14 83
14 84
14 86
14 88
14 90
14 91
14 94
15 16
15 17
15 18
15 22
15 23
15 24
15 26
15 27
15 28
15 31
15 32
15 33
15 35
15 41
15 45
15 46
15 48
15 49
15 51
15 53
15 55
15 56
15 58
15 59
15 60
15 62
15 63
15 66
15 67
15 70
15 71
15 72
15 74
15 77
15 79
15 82
15 83
15 87
15 89
15 90
15 92
15 93
15 98
15 99
16 20
16 21
16 23
16 24
16 27
16 29
16 30
16 31
16 33
16 39
16 40
16 41
16 44
16 45
16 47
16 50
16 51
16 53
16 54
16 55
16 57
16 58
16 60
16 61
16 62
16 63
16 64
16 67
16 68
16 71
16 73
16 74
16 76
16 78
16 80
16 81
16 87
16 90
16 91
16 93
16 96
16 98
17 19
17 20
17 26
17 28
17 29
17 31
17 32
17 34
17 37
17 39
17 40
17 42
17 43
17 44
17 45
17 46
17 47
17 48
17 49
17 50
17 51
17 52
17 55
17 59
17 63
17 65
17 68
17 70
17 72
17 75
17 79
17 80
17 82
17 84
17 85
17 86
17 87
17 88
17 96
17 97
17 99
18 21
18 23
18 24
18 25
18 26
18 27
18 29
18 31
18 32
18 34
18 39
18 41
18 45
18 50
18 52
18 55
18 56
18 61
18 63
18 64
18 66
18 70
18 73
18 74
18 75
18 76
18 79
18 81
18 84
18 85
18 90
18 92
18 98
19 20
19 22
19 24
19 25
19 26
19 27
19 28
19 30
19 31
19 33
19 35
19 38
19 39
19 40
19 43
19 45
19 46
19 50
19 51
19 53
19 54
19 55
19 56
19 57
19 58
19 62
19 64
19 65
19 70
19 73
19 76
19 77
19 78
19 79
19 80
19 81
19 84
19 86
19 87
19 91
19 92
19 97
19 99
20 21
20 22
20 27
20 28
20 32
20 33
20 34
20 35
20 37
20 38
20 39
20 40
20 47
20 48
20 51
20 52
20 55
20 57
20 58
20 59
20 62
20 63
20 68
20 70
20 71
20 72
20 74
20 76
20 79
20 80
20 84
20 87
20 88
20 90
20 91
20 92
20 96
20 99
21 22
21 23
21 24
21 27
21 33
21 36
21 37
21 38
21 44
21 46
21 47
21 48
21 49
21 50
21 51
21 52
21 53
21 54
21 56
21 58
21 59
21 60
21 61
21 64
21 65
21 66
21 69
21 70
21 73
21 74
21 75
21 77
21 80
21 81
21 83
21 88
21 89
21 91
21 96
21 98
21 99
22 24
22 25
22 27
22 28
22 29
22 30
22 31
22 32
22 34
22 36
22 37
22 38
22 41
22 44
22 47
22 51
22 59
22 62
22 63
22 64
22 65
22 67
22 68
22 75
22 78
22 79
22 82
22 88
22 89
22 90
22 93
22 94
22 95
22 96
22 97
22 98
22 99
23 24
23 30
23 31
23 32
23 38
23 40
23 41
23 43
23 45
23 46
23 49
23 50
23 51
23 52
23 53
23 56
23 59
23 61
23 64
23 65
23 67
23 72
23 73
23 74
23 78
23 80
23 81
23 82
23 83
23 86
23 87
23 88
23 89
23 90
23 97
23 98
24 26
24 27
24 28
24 30
24 31
24 33
24 36
24 37
24 39
24 40
24 41
24 42
24 43
24 46
24 48
24 51
24 52
24 55
24 56
24 57
24 58
24 59
24 60
24 63
24 64
24 66
24 67
24 68
24 69
24 70
24 71
24 73
24 74
24 76
24 77
24 79
24 81
24 82
24 83
24 85
24 86
24 90
24 91
24 92
24 97
25 28
25 31
25 33
25 34
25 35
25 36
25 37
25 45
25 46
25 48
25 49
25 51
25 52
25 53
25 54
25 55
25 56
25 58
25 59
25 61
25 63
25 67
25 70
25 78
25 82
25 83
25 87
25 88
25 89
25 90
25 94
25 97
25 98
26 28
26 29
26 31
26 32
26 34
26 37
26 39
26 44
26 50
26 51
26 53
26 54
26 56
26 57
26 58
26 59
26 60
26 61
26 64
26 65
26 69
26 73
26 75
26 78
26 79
26 81
26 83
26 84
26 85
26 86
26 89
26 90
26 95
26 96
26 97
26 99
27 28
27 29
27 30
27 35
27 36
27 39
27 40
27 44
27 46
27 51
27 52
27 54
27 55
27 57
27 58
27 62
27 64
27 65
27 66
27 69
27 70
27 71
27 72
27 74
27 77
27 79
27 80
27 81
27 84
27 85
27 90
27 91
27 92
27 93
27 95
27 96
28 29
28 34
28 40
28 42
28 46
28 47
28 49
28 50
28 52
28 53
28 55
28 56
28 59
28 61
28 67
28 68
28 69
28 71
28 73
28 80
28 83
28 84
28 85
28 87
28 90
28 91
28 93
28 94
28 95
28 99
29 31
29 32
29 35
29 36
29 41
29 44
29 46
29 47
29 53
29 55
29 61
29 63
29 70
29 72
29 73
29 75
29 78
29 79
29 80
29 83
29 84
29 86
29 87
29 92
29 93
29 97
29 98
29 99
30 33
30 34
30 38
30 39
30 40
30 42
30 43
30 44
30 45
30 47
30 48
30 54
30 55
30 56
30 59
30 60
30 63
30 64
30 65
30 66
30 68
30 71
30 74
30 77
30 78
30 79
30 80
30 85
30 87
30 89
30 93
30 94
30 95
30 96
30 98
30 99
31 32
31 33
31 34
31 35
31 38
31 39
31 40
31 42
31 43
31 49
31 50
31 52
31 56
31 59
31 60
31 61
31 62
31 63
31 64
31 67
31 68
31 71
31 72
31 74
31 75
31 77
31 78
31 84
31 85
31 86
31 93
31 94
31 95
31 96
31 97
32 35
32 37
32 38
32 39
32 40
32 43
32 45
32 48
32 52
32 53
32 54
32 55
32 56
32 63
32 64
32 70
32 71
32 73
32 74
32 76
32 82
32 85
32 87
32 88
32 89
32 90
32 93
32 96
32 97
32 98
33 34
33 35
33 37
33 38
33 40
33 41
33 43
33 46
33 50
33 51
33 54
33 56
33 57
33 61
33 63
33 65
33 66
33 69
33 70
33 72
33 74
33 76
33 81
33 84
33 86
33 92
33 95
33 96
33 97
33 99
34 37
34 40
34 42
34 43
34 45
34 46
34 47
34 49
34 52
34 54
34 58
34 63
34 64
34 65
34 69
34 71
34 73
34 77
34 78
34 79
34 80
34 82
34 83
34 86
34 90
34 92
34 97
34 99
35 36
35 39
35 41
35 42
35 44
35 45
35 46
35 48
35 51
35 52
35 56
35 58
35 59
35 61
35 62
35 63
35 64
35 65
35 66
35 69
35 71
35 74
35 77
35 78
35 80
35 81
35 86
35 87
35 88
35 89
35 91
35 95
35 96
35 98
36 37
36 38
36 39
36 41
36 45
36 46
36 47
36 48
36 49
36 50
36 51
36 52
36 53
36 57
36 59
36 63
36 64
36 65
36 67
36 69
36 72
36 77
36 81
36 82
36 84
36 87
36 89
36 91
36 92
36 94
36 96
36 97
36 98
36 99
37 38
37 39
37 40
37 42
37 44
37 46
37 48
37 53
37 54
37 55
37 58
37 62
37 64
37 65
37 71
37 72
37 73
37 75
37 76
37 77
37 78
37 79
37 80
37 81
37 83
37 87
37 88
37 89
37 90
37 92
37 94
37 95
37 98
38 42
38 43
38 44
38 46
38 47
38 49
38 51
38 55
38 60
38 61
38 62
38 63
38 68
38 69
38 72
38 73
38 75
38 78
38 80
38 84
38 85
38 88
38 92
38 93
38 94
38 96
38 97
38 99
39 40
39 42
39 44
39 45
39 46
39 48
39 49
39 50
39 51
39 52
39 54
39 55
39 57
39 58
39 59
39 60
39 61
39 62
39 63
39 64
39 66
39 69
39 72
39 76
39 79
39 80
39 81
39 82
39 83
39 84
39 85
39 88
39 89
39 97
40 42
40 43
40 44
40 45
40 46
40 48
40 49
40 51
40 52
40 53
40 57
40 59
40 61
40 62
40 63
40 65
40 66
40 67
40 68
40 76
40 77
40 79
40 80
40 81
40 86
40 89
40 90
40 91
40 94
40 95
40 96
40 97
40 98
41 42
41 49
41 50
41 54
41 55
41 56
41 57
41 59
41 60
41 61
41 66
41 67
41 69
41 70
41 71
41 72
41 73
41 74
41 75
41 77
41 78
41 79
41 80
41 81
41 82
41 85
41 87
41 88
41 89
41 90
41 92
41 93
41 94
41 97
41 99
42 44
42 45
42 46
42 47
42 50
42 52
42 53
42 55
42 56
42 57
42 61
42 64
42 65
42 67
42 68
42 69
42 71
42 72
42 74
42 77
42 78
42 79
42 80
42 81
42 83
42 84
42 86
42 89
42 90
42 91
42 93
42 97
42 98
43 44
43 46
43 48
43 50
43 56
43 60
43 61
43 62
43 63
43 65
43 71
43 73
43 74
43 77
43 78
43 79
43 80
43 81
43 86
43 90
43 92
43 93
43 97
43 98
44 46
44 47
44 49
44 50
44 51
44 52
44 54
44 58
44 59
44 60
44 61
44 66
44 67
44 68
44 71
44 72
44 79
44 81
44 82
44 83
44 87
44 90
44 94
44 99
45 47
45 48
45 52
45 53
45 56
45 60
45 62
45 64
45 65
45 67
45 70
45 73
45 75
45 76
45 79
45 80
45 83
45 84
45 87
45 89
45 93
45 94
45 96
45 98
46 49
46 51
46 53
46 57
46 58
46 66
46 67
46 69
46 72
46 73
46 77
46 78
46 80
46 81
46 83
46 86
46 87
46 88
46 89
46 94
46 97
46 98
46 99
47 48
47 50
47 52
47 53
47 54
47 55
47 56
47 61
47 62
47 65
47 68
47 70
47 72
47 76
47 77
47 80
47 84
47 87
47 89
47 90
47 91
47 93
47 94
47 96
47 98
47 99
48 49
48 50
48 52
48 54
48 56
48 57
48 58
48 59
48 61
48 63
48 64
48 65
48 70
48 74
48 75
48 76
48 77
48 79
48 80
48 82
48 85
48 86
48 87
48 88
48 90
48 92
48 95
48 99
49 50
49 54
49 55
49 58
49 59
49 67
49 70
49 72
49 74
49 76
49 79
49 84
49 88
49 94
49 95
49 98
49 99
50 51
50 53
50 54
50 55
50 60
50 61
50 62
50 67
50 68
50 69
50 70
50 72
50 74
50 82
50 83
50 84
50 86
50 87
50 93
50 97
50 98
51 52
51 55
51 56
51 57
51 58
51 59
51 60
51 62
51 64
51 65
51 66
51 68
51 71
51 74
51 77
51 79
51 80
51 81
51 83
51 86
51 88
51 89
51 91
51 93
51 96
51 97
51 98
52 53
52 54
52 56
52 59
52 60
52 61
52 63
52 67
52 69
52 70
52 74
52 78
52 83
52 85
52 89
52 92
52 93
52 94
52 99
53 54
53 55
53 59
53 60
53 62
53 64
53 66
53 67
53 68
53 71
53 72
53 73
53 74
53 76
53 81
53 82
53 83
53 84
53 88
53 90
53 92
53 95
53 96
53 97
53 99
54 55
54 56
54 59
54 60
54 64
54 66
54 67
54 68
54 69
54 70
54 72
54 75
54 76
54 77
54 78
54 80
54 85
54 86
54 92
54 94
54 95
54 97
54 98
55 57
55 59
55 61
55 64
55 65
55 66
55 67
55 70
55 72
55 74
55 75
55 76
55 77
55 81
55 82
55 83
55 88
55 90
55 91
55 93
55 94
55 97
56 57
56 58
56 60
56 61
56 66
56 68
56 71
56 73
56 76
56 78
56 80
56 81
56 82
56 84
56 89
56 92
56 93
56 94
56 95
56 97
56 98
56 99
57 62
57 68
57 70
57 71
57 73
57 74
57 77
57 81
57 89
57 91
57 94
57 95
57 96
57 97
57 98
57 99
58 59
58 63
58 64
58 65
58 66
58 70
58 71
58 76
58 77
58 79
58 81
58 82
58 83
58 84
58 85
58 90
58 91
58 93
58 95
58 96
58 97
58 98
58 99
59 61
59 62
59 66
59 67
59 68
59 69
59 70
59 72
59 77
59 79
59 80
59 82
59 85
59 86
59 87
59 90
59 91
59 93
59 98
59 99
60 64
60 65
60 66
60 69
60 70
60 72
60 75
60 77
60 80
60 84
60 85
60 89
60 90
60 91
60 93
60 94
60 98
60 99
61 62
61 63
61 64
61 65
61 66
61 67
61 69
61 71
61 72
61 77
61 78
61 81
61 85
61 87
61 90
61 92
61 93
61 94
61 96
61 98
62 63
62 67
62 70
62 72
62 74
62 76
62 79
62 81
62 82
62 83
62 84
62 85
62 89
62 92
62 93
62 96
62 97
62 98
63 66
63 68
63 71
63 72
63 74
63 77
63 78
63 82
63 89
63 95
63 98
63 99
64 65
64 66
64 68
64 72
64 73
64 75
64 76
64 77
64 78
64 79
64 82
64 84
64 85
64 86
64 88
64 89
64 90
64 93
64 94
64 95
64 96
64 99
65 68
65 69
65 70
65 72
65 74
65 75
65 76
65 78
65 82
65 84
65 86
65 87
65 89
65 90
65 92
65 93
65 94
65 96
66 68
66 69
66 72
66 75
66 76
66 77
66 81
66 84
66 86
66 87
66 92
66 98
67 72
67 73
67 75
67 77
67 79
67 84
67 85
67 86
67 88
67 90
67 91
67 97
67 99
68 69
68 72
68 74
68 75
68 76
68 79
68 80
68 83
68 86
68 87
68 88
68 90
68 92
68 95
68 97
68 98
69 70
69 71
69 72
69 73
69 76
69 78
69 79
69 80
69 81
69 82
69 84
69 86
69 89
69 93
69 94
69 95
69 97
69 98
69 99
70 72
70 74
70 76
70 77
70 79
70 83
70 86
70 91
70 92
70 94
70 95
70 96
70 98
70 99
71 75
71 77
71 79
71 81
71 83
71 84
71 86
71 87
71 89
71 90
71 91
71 93
72 73
72 75
72 76
72 77
72 84
72 85
72 86
72 89
72 90
72 92
72 96
72 99
73 74
73 75
73 76
73 79
73 81
73 83
73 84
73 85
73 87
73 90
73 92
73 94
73 96
73 97
74 75
74 76
74 82
74 83
74 84
74 86
74 88
74 90
74 91
74 95
74 97
74 98
74 99
75 76
75 77
75 78
75 79
75 80
75 83
75 84
75 87
75 88
75 89
75 91
75 92
75 93
75 94
75 96
75 97
75 98
76 78
76 80
76 81
76 82
76 83
76 84
76 85
76 86
76 88
76 89
76 90
76 91
76 92
76 94
77 78
77 80
77 83
77 95
78 80
78 81
78 82
78 83
78 84
78 86
78 87
78 89
78 91
78 92
78 93
78 95
78 97
78 98
78 99
79 84
79 85
79 87
79 88
79 89
79 90
79 91
79 93
79 95
79 98
79 99
80 86
80 88
80 90
80 93
80 94
80 96
80 98
80 99
81 84
81 85
81 87
81 88
81 93
81 95
81 96
81 97
81 98
81 99
82 83
82 84
82 87
82 89
82 90
82 94
82 97
83 87
83 89
83 90
83 91
83 92
83 98
84 85
84 86
84 88
84 90
84 91
84 92
84 94
84 96
84 98
84 99
85 90
85 92
85 94
85 95
85 96
85 97
85 99
86 88
86 97
86 99
87 88
87 95
87 96
87 98
87 99
88 89
88 90
88 93
88 94
88 95
88 98
89 90
89 91
89 95
89 96
89 99
90 92
90 97
90 98
91 92
91 95
91 99
92 93
92 94
92 96
92 97
93 94
93 96
93 98
93 99
94 96
94 99
95 99
96 97
96 98
97 98
97 99
56 78
0 60
28 41
42 63
15 19
24 74
5 86
55 81
69 87
13 95
7 79
58 96
71 99
36 70
32 68
34 84
21 75
3 27
89 93
66 76
6 33
1 85
10 31
17 30
25 50
47 59
29 92
23 44
37 52
53 80
16 94
14 91
51 54
72 97
22 39
65 73
4 82
45 64
2 62
35 49
46 48
11 61
40 83
43 98
38 77
9 26
57 67
20 90
8 12
18 88
